Minimize
r
Subject to
x111 + x121 + x131 + x141 + x151 + x161 + x171 + x181 = 2
x112 + x122 + x132 + x142 + x152 + x162 + x172 + x182 = 3
x113 + x123 + x133 + x143 + x153 + x163 + x173 + x183 = 4
x114 + x124 + x134 + x144 + x154 + x164 + x174 + x184 = 5
x115 + x125 + x135 + x145 + x155 + x165 + x175 + x185 = 6
x116 + x126 + x136 + x146 + x156 + x166 + x176 + x186 = 7
x117 + x127 + x137 + x147 + x157 + x167 + x177 + x187 = 8
x211 + x221 + x231 + x241 + x251 + x261 + x271 + x281 = 3
x212 + x222 + x232 + x242 + x252 + x262 + x272 + x282 = 4
x213 + x223 + x233 + x243 + x253 + x263 + x273 + x283 = 5
x214 + x224 + x234 + x244 + x254 + x264 + x274 + x284 = 6
x215 + x225 + x235 + x245 + x255 + x265 + x275 + x285 = 7
x216 + x226 + x236 + x246 + x256 + x266 + x276 + x286 = 8
x217 + x227 + x237 + x247 + x257 + x267 + x277 + x287 = 9
x311 + x321 + x331 + x341 + x351 + x361 + x371 + x381 = 4
x312 + x322 + x332 + x342 + x352 + x362 + x372 + x382 = 5
x313 + x323 + x333 + x343 + x353 + x363 + x373 + x383 = 6
x314 + x324 + x334 + x344 + x354 + x364 + x374 + x384 = 7
x315 + x325 + x335 + x345 + x355 + x365 + x375 + x385 = 8
x316 + x326 + x336 + x346 + x356 + x366 + x376 + x386 = 9
x317 + x327 + x337 + x347 + x357 + x367 + x377 + x387 = 10
x411 + x421 + x431 + x441 + x451 + x461 + x471 + x481 = 5
x412 + x422 + x432 + x442 + x452 + x462 + x472 + x482 = 6
x413 + x423 + x433 + x443 + x453 + x463 + x473 + x483 = 7
x414 + x424 + x434 + x444 + x454 + x464 + x474 + x484 = 8
x415 + x425 + x435 + x445 + x455 + x465 + x475 + x485 = 9
x416 + x426 + x436 + x446 + x456 + x466 + x476 + x486 = 10
x417 + x427 + x437 + x447 + x457 + x467 + x477 + x487 = 11
x511 + x521 + x531 + x541 + x551 + x561 + x571 + x581 = 6
x512 + x522 + x532 + x542 + x552 + x562 + x572 + x582 = 7
x513 + x523 + x533 + x543 + x553 + x563 + x573 + x583 = 8
x514 + x524 + x534 + x544 + x554 + x564 + x574 + x584 = 9
x515 + x525 + x535 + x545 + x555 + x565 + x575 + x585 = 10
x516 + x526 + x536 + x546 + x556 + x566 + x576 + x586 = 11
x517 + x527 + x537 + x547 + x557 + x567 + x577 + x587 = 12
x611 + x621 + x631 + x641 + x651 + x661 + x671 + x681 = 7
x612 + x622 + x632 + x642 + x652 + x662 + x672 + x682 = 8
x613 + x623 + x633 + x643 + x653 + x663 + x673 + x683 = 9
x614 + x624 + x634 + x644 + x654 + x664 + x674 + x684 = 10
x615 + x625 + x635 + x645 + x655 + x665 + x675 + x685 = 11
x616 + x626 + x636 + x646 + x656 + x666 + x676 + x686 = 12
x617 + x627 + x637 + x647 + x657 + x667 + x677 + x687 = 13
x711 + x721 + x731 + x741 + x751 + x761 + x771 + x781 = 8
x712 + x722 + x732 + x742 + x752 + x762 + x772 + x782 = 9
x713 + x723 + x733 + x743 + x753 + x763 + x773 + x783 = 10
x714 + x724 + x734 + x744 + x754 + x764 + x774 + x784 = 11
x715 + x725 + x735 + x745 + x755 + x765 + x775 + x785 = 12
x716 + x726 + x736 + x746 + x756 + x766 + x776 + x786 = 13
x717 + x727 + x737 + x747 + x757 + x767 + x777 + x787 = 14
p111 + p121 + p131 + p141 + p151 + p161 + p171 + p181 = 3
p112 + p122 + p132 + p142 + p152 + p162 + p172 + p182 = 3
p113 + p123 + p133 + p143 + p153 + p163 + p173 + p183 = 3
p114 + p124 + p134 + p144 + p154 + p164 + p174 + p184 = 3
p115 + p125 + p135 + p145 + p155 + p165 + p175 + p185 = 3
p116 + p126 + p136 + p146 + p156 + p166 + p176 + p186 = 3
p117 + p127 + p137 + p147 + p157 + p167 + p177 + p187 = 3
p211 + p221 + p231 + p241 + p251 + p261 + p271 + p281 = 3
p212 + p222 + p232 + p242 + p252 + p262 + p272 + p282 = 3
p213 + p223 + p233 + p243 + p253 + p263 + p273 + p283 = 3
p214 + p224 + p234 + p244 + p254 + p264 + p274 + p284 = 3
p215 + p225 + p235 + p245 + p255 + p265 + p275 + p285 = 3
p216 + p226 + p236 + p246 + p256 + p266 + p276 + p286 = 3
p217 + p227 + p237 + p247 + p257 + p267 + p277 + p287 = 3
p311 + p321 + p331 + p341 + p351 + p361 + p371 + p381 = 3
p312 + p322 + p332 + p342 + p352 + p362 + p372 + p382 = 3
p313 + p323 + p333 + p343 + p353 + p363 + p373 + p383 = 3
p314 + p324 + p334 + p344 + p354 + p364 + p374 + p384 = 3
p315 + p325 + p335 + p345 + p355 + p365 + p375 + p385 = 3
p316 + p326 + p336 + p346 + p356 + p366 + p376 + p386 = 3
p317 + p327 + p337 + p347 + p357 + p367 + p377 + p387 = 3
p411 + p421 + p431 + p441 + p451 + p461 + p471 + p481 = 3
p412 + p422 + p432 + p442 + p452 + p462 + p472 + p482 = 3
p413 + p423 + p433 + p443 + p453 + p463 + p473 + p483 = 3
p414 + p424 + p434 + p444 + p454 + p464 + p474 + p484 = 3
p415 + p425 + p435 + p445 + p455 + p465 + p475 + p485 = 3
p416 + p426 + p436 + p446 + p456 + p466 + p476 + p486 = 3
p417 + p427 + p437 + p447 + p457 + p467 + p477 + p487 = 3
p511 + p521 + p531 + p541 + p551 + p561 + p571 + p581 = 3
p512 + p522 + p532 + p542 + p552 + p562 + p572 + p582 = 3
p513 + p523 + p533 + p543 + p553 + p563 + p573 + p583 = 3
p514 + p524 + p534 + p544 + p554 + p564 + p574 + p584 = 3
p515 + p525 + p535 + p545 + p555 + p565 + p575 + p585 = 3
p516 + p526 + p536 + p546 + p556 + p566 + p576 + p586 = 3
p517 + p527 + p537 + p547 + p557 + p567 + p577 + p587 = 3
p611 + p621 + p631 + p641 + p651 + p661 + p671 + p681 = 3
p612 + p622 + p632 + p642 + p652 + p662 + p672 + p682 = 3
p613 + p623 + p633 + p643 + p653 + p663 + p673 + p683 = 3
p614 + p624 + p634 + p644 + p654 + p664 + p674 + p684 = 3
p615 + p625 + p635 + p645 + p655 + p665 + p675 + p685 = 3
p616 + p626 + p636 + p646 + p656 + p666 + p676 + p686 = 3
p617 + p627 + p637 + p647 + p657 + p667 + p677 + p687 = 3
p711 + p721 + p731 + p741 + p751 + p761 + p771 + p781 = 3
p712 + p722 + p732 + p742 + p752 + p762 + p772 + p782 = 3
p713 + p723 + p733 + p743 + p753 + p763 + p773 + p783 = 3
p714 + p724 + p734 + p744 + p754 + p764 + p774 + p784 = 3
p715 + p725 + p735 + p745 + p755 + p765 + p775 + p785 = 3
p716 + p726 + p736 + p746 + p756 + p766 + p776 + p786 = 3
p717 + p727 + p737 + p747 + p757 + p767 + p777 + p787 = 3
3 x111 - 2 p111 = 0
3 x112 - 3 p112 = 0
3 x113 - 4 p113 = 0
3 x114 - 5 p114 = 0
3 x115 - 6 p115 = 0
3 x116 - 7 p116 = 0
3 x117 - 8 p117 = 0
3 x121 - 2 p121 = 0
3 x122 - 3 p122 = 0
3 x123 - 4 p123 = 0
3 x124 - 5 p124 = 0
3 x125 - 6 p125 = 0
3 x126 - 7 p126 = 0
3 x127 - 8 p127 = 0
3 x131 - 2 p131 = 0
3 x132 - 3 p132 = 0
3 x133 - 4 p133 = 0
3 x134 - 5 p134 = 0
3 x135 - 6 p135 = 0
3 x136 - 7 p136 = 0
3 x137 - 8 p137 = 0
3 x141 - 2 p141 = 0
3 x142 - 3 p142 = 0
3 x143 - 4 p143 = 0
3 x144 - 5 p144 = 0
3 x145 - 6 p145 = 0
3 x146 - 7 p146 = 0
3 x147 - 8 p147 = 0
3 x151 - 2 p151 = 0
3 x152 - 3 p152 = 0
3 x153 - 4 p153 = 0
3 x154 - 5 p154 = 0
3 x155 - 6 p155 = 0
3 x156 - 7 p156 = 0
3 x157 - 8 p157 = 0
3 x161 - 2 p161 = 0
3 x162 - 3 p162 = 0
3 x163 - 4 p163 = 0
3 x164 - 5 p164 = 0
3 x165 - 6 p165 = 0
3 x166 - 7 p166 = 0
3 x167 - 8 p167 = 0
3 x171 - 2 p171 = 0
3 x172 - 3 p172 = 0
3 x173 - 4 p173 = 0
3 x174 - 5 p174 = 0
3 x175 - 6 p175 = 0
3 x176 - 7 p176 = 0
3 x177 - 8 p177 = 0
3 x181 - 2 p181 = 0
3 x182 - 3 p182 = 0
3 x183 - 4 p183 = 0
3 x184 - 5 p184 = 0
3 x185 - 6 p185 = 0
3 x186 - 7 p186 = 0
3 x187 - 8 p187 = 0
3 x211 - 3 p211 = 0
3 x212 - 4 p212 = 0
3 x213 - 5 p213 = 0
3 x214 - 6 p214 = 0
3 x215 - 7 p215 = 0
3 x216 - 8 p216 = 0
3 x217 - 9 p217 = 0
3 x221 - 3 p221 = 0
3 x222 - 4 p222 = 0
3 x223 - 5 p223 = 0
3 x224 - 6 p224 = 0
3 x225 - 7 p225 = 0
3 x226 - 8 p226 = 0
3 x227 - 9 p227 = 0
3 x231 - 3 p231 = 0
3 x232 - 4 p232 = 0
3 x233 - 5 p233 = 0
3 x234 - 6 p234 = 0
3 x235 - 7 p235 = 0
3 x236 - 8 p236 = 0
3 x237 - 9 p237 = 0
3 x241 - 3 p241 = 0
3 x242 - 4 p242 = 0
3 x243 - 5 p243 = 0
3 x244 - 6 p244 = 0
3 x245 - 7 p245 = 0
3 x246 - 8 p246 = 0
3 x247 - 9 p247 = 0
3 x251 - 3 p251 = 0
3 x252 - 4 p252 = 0
3 x253 - 5 p253 = 0
3 x254 - 6 p254 = 0
3 x255 - 7 p255 = 0
3 x256 - 8 p256 = 0
3 x257 - 9 p257 = 0
3 x261 - 3 p261 = 0
3 x262 - 4 p262 = 0
3 x263 - 5 p263 = 0
3 x264 - 6 p264 = 0
3 x265 - 7 p265 = 0
3 x266 - 8 p266 = 0
3 x267 - 9 p267 = 0
3 x271 - 3 p271 = 0
3 x272 - 4 p272 = 0
3 x273 - 5 p273 = 0
3 x274 - 6 p274 = 0
3 x275 - 7 p275 = 0
3 x276 - 8 p276 = 0
3 x277 - 9 p277 = 0
3 x281 - 3 p281 = 0
3 x282 - 4 p282 = 0
3 x283 - 5 p283 = 0
3 x284 - 6 p284 = 0
3 x285 - 7 p285 = 0
3 x286 - 8 p286 = 0
3 x287 - 9 p287 = 0
3 x311 - 4 p311 = 0
3 x312 - 5 p312 = 0
3 x313 - 6 p313 = 0
3 x314 - 7 p314 = 0
3 x315 - 8 p315 = 0
3 x316 - 9 p316 = 0
3 x317 - 10 p317 = 0
3 x321 - 4 p321 = 0
3 x322 - 5 p322 = 0
3 x323 - 6 p323 = 0
3 x324 - 7 p324 = 0
3 x325 - 8 p325 = 0
3 x326 - 9 p326 = 0
3 x327 - 10 p327 = 0
3 x331 - 4 p331 = 0
3 x332 - 5 p332 = 0
3 x333 - 6 p333 = 0
3 x334 - 7 p334 = 0
3 x335 - 8 p335 = 0
3 x336 - 9 p336 = 0
3 x337 - 10 p337 = 0
3 x341 - 4 p341 = 0
3 x342 - 5 p342 = 0
3 x343 - 6 p343 = 0
3 x344 - 7 p344 = 0
3 x345 - 8 p345 = 0
3 x346 - 9 p346 = 0
3 x347 - 10 p347 = 0
3 x351 - 4 p351 = 0
3 x352 - 5 p352 = 0
3 x353 - 6 p353 = 0
3 x354 - 7 p354 = 0
3 x355 - 8 p355 = 0
3 x356 - 9 p356 = 0
3 x357 - 10 p357 = 0
3 x361 - 4 p361 = 0
3 x362 - 5 p362 = 0
3 x363 - 6 p363 = 0
3 x364 - 7 p364 = 0
3 x365 - 8 p365 = 0
3 x366 - 9 p366 = 0
3 x367 - 10 p367 = 0
3 x371 - 4 p371 = 0
3 x372 - 5 p372 = 0
3 x373 - 6 p373 = 0
3 x374 - 7 p374 = 0
3 x375 - 8 p375 = 0
3 x376 - 9 p376 = 0
3 x377 - 10 p377 = 0
3 x381 - 4 p381 = 0
3 x382 - 5 p382 = 0
3 x383 - 6 p383 = 0
3 x384 - 7 p384 = 0
3 x385 - 8 p385 = 0
3 x386 - 9 p386 = 0
3 x387 - 10 p387 = 0
3 x411 - 5 p411 = 0
3 x412 - 6 p412 = 0
3 x413 - 7 p413 = 0
3 x414 - 8 p414 = 0
3 x415 - 9 p415 = 0
3 x416 - 10 p416 = 0
3 x417 - 11 p417 = 0
3 x421 - 5 p421 = 0
3 x422 - 6 p422 = 0
3 x423 - 7 p423 = 0
3 x424 - 8 p424 = 0
3 x425 - 9 p425 = 0
3 x426 - 10 p426 = 0
3 x427 - 11 p427 = 0
3 x431 - 5 p431 = 0
3 x432 - 6 p432 = 0
3 x433 - 7 p433 = 0
3 x434 - 8 p434 = 0
3 x435 - 9 p435 = 0
3 x436 - 10 p436 = 0
3 x437 - 11 p437 = 0
3 x441 - 5 p441 = 0
3 x442 - 6 p442 = 0
3 x443 - 7 p443 = 0
3 x444 - 8 p444 = 0
3 x445 - 9 p445 = 0
3 x446 - 10 p446 = 0
3 x447 - 11 p447 = 0
3 x451 - 5 p451 = 0
3 x452 - 6 p452 = 0
3 x453 - 7 p453 = 0
3 x454 - 8 p454 = 0
3 x455 - 9 p455 = 0
3 x456 - 10 p456 = 0
3 x457 - 11 p457 = 0
3 x461 - 5 p461 = 0
3 x462 - 6 p462 = 0
3 x463 - 7 p463 = 0
3 x464 - 8 p464 = 0
3 x465 - 9 p465 = 0
3 x466 - 10 p466 = 0
3 x467 - 11 p467 = 0
3 x471 - 5 p471 = 0
3 x472 - 6 p472 = 0
3 x473 - 7 p473 = 0
3 x474 - 8 p474 = 0
3 x475 - 9 p475 = 0
3 x476 - 10 p476 = 0
3 x477 - 11 p477 = 0
3 x481 - 5 p481 = 0
3 x482 - 6 p482 = 0
3 x483 - 7 p483 = 0
3 x484 - 8 p484 = 0
3 x485 - 9 p485 = 0
3 x486 - 10 p486 = 0
3 x487 - 11 p487 = 0
3 x511 - 6 p511 = 0
3 x512 - 7 p512 = 0
3 x513 - 8 p513 = 0
3 x514 - 9 p514 = 0
3 x515 - 10 p515 = 0
3 x516 - 11 p516 = 0
3 x517 - 12 p517 = 0
3 x521 - 6 p521 = 0
3 x522 - 7 p522 = 0
3 x523 - 8 p523 = 0
3 x524 - 9 p524 = 0
3 x525 - 10 p525 = 0
3 x526 - 11 p526 = 0
3 x527 - 12 p527 = 0
3 x531 - 6 p531 = 0
3 x532 - 7 p532 = 0
3 x533 - 8 p533 = 0
3 x534 - 9 p534 = 0
3 x535 - 10 p535 = 0
3 x536 - 11 p536 = 0
3 x537 - 12 p537 = 0
3 x541 - 6 p541 = 0
3 x542 - 7 p542 = 0
3 x543 - 8 p543 = 0
3 x544 - 9 p544 = 0
3 x545 - 10 p545 = 0
3 x546 - 11 p546 = 0
3 x547 - 12 p547 = 0
3 x551 - 6 p551 = 0
3 x552 - 7 p552 = 0
3 x553 - 8 p553 = 0
3 x554 - 9 p554 = 0
3 x555 - 10 p555 = 0
3 x556 - 11 p556 = 0
3 x557 - 12 p557 = 0
3 x561 - 6 p561 = 0
3 x562 - 7 p562 = 0
3 x563 - 8 p563 = 0
3 x564 - 9 p564 = 0
3 x565 - 10 p565 = 0
3 x566 - 11 p566 = 0
3 x567 - 12 p567 = 0
3 x571 - 6 p571 = 0
3 x572 - 7 p572 = 0
3 x573 - 8 p573 = 0
3 x574 - 9 p574 = 0
3 x575 - 10 p575 = 0
3 x576 - 11 p576 = 0
3 x577 - 12 p577 = 0
3 x581 - 6 p581 = 0
3 x582 - 7 p582 = 0
3 x583 - 8 p583 = 0
3 x584 - 9 p584 = 0
3 x585 - 10 p585 = 0
3 x586 - 11 p586 = 0
3 x587 - 12 p587 = 0
3 x611 - 7 p611 = 0
3 x612 - 8 p612 = 0
3 x613 - 9 p613 = 0
3 x614 - 10 p614 = 0
3 x615 - 11 p615 = 0
3 x616 - 12 p616 = 0
3 x617 - 13 p617 = 0
3 x621 - 7 p621 = 0
3 x622 - 8 p622 = 0
3 x623 - 9 p623 = 0
3 x624 - 10 p624 = 0
3 x625 - 11 p625 = 0
3 x626 - 12 p626 = 0
3 x627 - 13 p627 = 0
3 x631 - 7 p631 = 0
3 x632 - 8 p632 = 0
3 x633 - 9 p633 = 0
3 x634 - 10 p634 = 0
3 x635 - 11 p635 = 0
3 x636 - 12 p636 = 0
3 x637 - 13 p637 = 0
3 x641 - 7 p641 = 0
3 x642 - 8 p642 = 0
3 x643 - 9 p643 = 0
3 x644 - 10 p644 = 0
3 x645 - 11 p645 = 0
3 x646 - 12 p646 = 0
3 x647 - 13 p647 = 0
3 x651 - 7 p651 = 0
3 x652 - 8 p652 = 0
3 x653 - 9 p653 = 0
3 x654 - 10 p654 = 0
3 x655 - 11 p655 = 0
3 x656 - 12 p656 = 0
3 x657 - 13 p657 = 0
3 x661 - 7 p661 = 0
3 x662 - 8 p662 = 0
3 x663 - 9 p663 = 0
3 x664 - 10 p664 = 0
3 x665 - 11 p665 = 0
3 x666 - 12 p666 = 0
3 x667 - 13 p667 = 0
3 x671 - 7 p671 = 0
3 x672 - 8 p672 = 0
3 x673 - 9 p673 = 0
3 x674 - 10 p674 = 0
3 x675 - 11 p675 = 0
3 x676 - 12 p676 = 0
3 x677 - 13 p677 = 0
3 x681 - 7 p681 = 0
3 x682 - 8 p682 = 0
3 x683 - 9 p683 = 0
3 x684 - 10 p684 = 0
3 x685 - 11 p685 = 0
3 x686 - 12 p686 = 0
3 x687 - 13 p687 = 0
3 x711 - 8 p711 = 0
3 x712 - 9 p712 = 0
3 x713 - 10 p713 = 0
3 x714 - 11 p714 = 0
3 x715 - 12 p715 = 0
3 x716 - 13 p716 = 0
3 x717 - 14 p717 = 0
3 x721 - 8 p721 = 0
3 x722 - 9 p722 = 0
3 x723 - 10 p723 = 0
3 x724 - 11 p724 = 0
3 x725 - 12 p725 = 0
3 x726 - 13 p726 = 0
3 x727 - 14 p727 = 0
3 x731 - 8 p731 = 0
3 x732 - 9 p732 = 0
3 x733 - 10 p733 = 0
3 x734 - 11 p734 = 0
3 x735 - 12 p735 = 0
3 x736 - 13 p736 = 0
3 x737 - 14 p737 = 0
3 x741 - 8 p741 = 0
3 x742 - 9 p742 = 0
3 x743 - 10 p743 = 0
3 x744 - 11 p744 = 0
3 x745 - 12 p745 = 0
3 x746 - 13 p746 = 0
3 x747 - 14 p747 = 0
3 x751 - 8 p751 = 0
3 x752 - 9 p752 = 0
3 x753 - 10 p753 = 0
3 x754 - 11 p754 = 0
3 x755 - 12 p755 = 0
3 x756 - 13 p756 = 0
3 x757 - 14 p757 = 0
3 x761 - 8 p761 = 0
3 x762 - 9 p762 = 0
3 x763 - 10 p763 = 0
3 x764 - 11 p764 = 0
3 x765 - 12 p765 = 0
3 x766 - 13 p766 = 0
3 x767 - 14 p767 = 0
3 x771 - 8 p771 = 0
3 x772 - 9 p772 = 0
3 x773 - 10 p773 = 0
3 x774 - 11 p774 = 0
3 x775 - 12 p775 = 0
3 x776 - 13 p776 = 0
3 x777 - 14 p777 = 0
3 x781 - 8 p781 = 0
3 x782 - 9 p782 = 0
3 x783 - 10 p783 = 0
3 x784 - 11 p784 = 0
3 x785 - 12 p785 = 0
3 x786 - 13 p786 = 0
3 x787 - 14 p787 = 0
x111 + x112 + x113 + x114 + x115 + x116 + x117 - 30 r <= 0
x121 + x122 + x123 + x124 + x125 + x126 + x127 - 30 r <= 0
x131 + x132 + x133 + x134 + x135 + x136 + x137 - 30 r <= 0
x141 + x142 + x143 + x144 + x145 + x146 + x147 - 30 r <= 0
x151 + x152 + x153 + x154 + x155 + x156 + x157 - 30 r <= 0
x161 + x162 + x163 + x164 + x165 + x166 + x167 - 30 r <= 0
x171 + x172 + x173 + x174 + x175 + x176 + x177 - 30 r <= 0
x181 + x182 + x183 + x184 + x185 + x186 + x187 - 30 r <= 0
x211 + x212 + x213 + x214 + x215 + x216 + x217 - 30 r <= 0
x221 + x222 + x223 + x224 + x225 + x226 + x227 - 30 r <= 0
x231 + x232 + x233 + x234 + x235 + x236 + x237 - 30 r <= 0
x241 + x242 + x243 + x244 + x245 + x246 + x247 - 30 r <= 0
x251 + x252 + x253 + x254 + x255 + x256 + x257 - 30 r <= 0
x261 + x262 + x263 + x264 + x265 + x266 + x267 - 30 r <= 0
x271 + x272 + x273 + x274 + x275 + x276 + x277 - 30 r <= 0
x281 + x282 + x283 + x284 + x285 + x286 + x287 - 30 r <= 0
x311 + x312 + x313 + x314 + x315 + x316 + x317 - 30 r <= 0
x321 + x322 + x323 + x324 + x325 + x326 + x327 - 30 r <= 0
x331 + x332 + x333 + x334 + x335 + x336 + x337 - 30 r <= 0
x341 + x342 + x343 + x344 + x345 + x346 + x347 - 30 r <= 0
x351 + x352 + x353 + x354 + x355 + x356 + x357 - 30 r <= 0
x361 + x362 + x363 + x364 + x365 + x366 + x367 - 30 r <= 0
x371 + x372 + x373 + x374 + x375 + x376 + x377 - 30 r <= 0
x381 + x382 + x383 + x384 + x385 + x386 + x387 - 30 r <= 0
x411 + x412 + x413 + x414 + x415 + x416 + x417 - 30 r <= 0
x421 + x422 + x423 + x424 + x425 + x426 + x427 - 30 r <= 0
x431 + x432 + x433 + x434 + x435 + x436 + x437 - 30 r <= 0
x441 + x442 + x443 + x444 + x445 + x446 + x447 - 30 r <= 0
x451 + x452 + x453 + x454 + x455 + x456 + x457 - 30 r <= 0
x461 + x462 + x463 + x464 + x465 + x466 + x467 - 30 r <= 0
x471 + x472 + x473 + x474 + x475 + x476 + x477 - 30 r <= 0
x481 + x482 + x483 + x484 + x485 + x486 + x487 - 30 r <= 0
x511 + x512 + x513 + x514 + x515 + x516 + x517 - 30 r <= 0
x521 + x522 + x523 + x524 + x525 + x526 + x527 - 30 r <= 0
x531 + x532 + x533 + x534 + x535 + x536 + x537 - 30 r <= 0
x541 + x542 + x543 + x544 + x545 + x546 + x547 - 30 r <= 0
x551 + x552 + x553 + x554 + x555 + x556 + x557 - 30 r <= 0
x561 + x562 + x563 + x564 + x565 + x566 + x567 - 30 r <= 0
x571 + x572 + x573 + x574 + x575 + x576 + x577 - 30 r <= 0
x581 + x582 + x583 + x584 + x585 + x586 + x587 - 30 r <= 0
x611 + x612 + x613 + x614 + x615 + x616 + x617 - 30 r <= 0
x621 + x622 + x623 + x624 + x625 + x626 + x627 - 30 r <= 0
x631 + x632 + x633 + x634 + x635 + x636 + x637 - 30 r <= 0
x641 + x642 + x643 + x644 + x645 + x646 + x647 - 30 r <= 0
x651 + x652 + x653 + x654 + x655 + x656 + x657 - 30 r <= 0
x661 + x662 + x663 + x664 + x665 + x666 + x667 - 30 r <= 0
x671 + x672 + x673 + x674 + x675 + x676 + x677 - 30 r <= 0
x681 + x682 + x683 + x684 + x685 + x686 + x687 - 30 r <= 0
x711 + x712 + x713 + x714 + x715 + x716 + x717 - 30 r <= 0
x721 + x722 + x723 + x724 + x725 + x726 + x727 - 30 r <= 0
x731 + x732 + x733 + x734 + x735 + x736 + x737 - 30 r <= 0
x741 + x742 + x743 + x744 + x745 + x746 + x747 - 30 r <= 0
x751 + x752 + x753 + x754 + x755 + x756 + x757 - 30 r <= 0
x761 + x762 + x763 + x764 + x765 + x766 + x767 - 30 r <= 0
x771 + x772 + x773 + x774 + x775 + x776 + x777 - 30 r <= 0
x781 + x782 + x783 + x784 + x785 + x786 + x787 - 30 r <= 0
x111 + x211 + x311 + x411 + x511 + x611 + x711 - 30 r <= 0
x112 + x212 + x312 + x412 + x512 + x612 + x712 - 30 r <= 0
x113 + x213 + x313 + x413 + x513 + x613 + x713 - 30 r <= 0
x114 + x214 + x314 + x414 + x514 + x614 + x714 - 30 r <= 0
x115 + x215 + x315 + x415 + x515 + x615 + x715 - 30 r <= 0
x116 + x216 + x316 + x416 + x516 + x616 + x716 - 30 r <= 0
x117 + x217 + x317 + x417 + x517 + x617 + x717 - 30 r <= 0
x121 + x221 + x321 + x421 + x521 + x621 + x721 - 30 r <= 0
x122 + x222 + x322 + x422 + x522 + x622 + x722 - 30 r <= 0
x123 + x223 + x323 + x423 + x523 + x623 + x723 - 30 r <= 0
x124 + x224 + x324 + x424 + x524 + x624 + x724 - 30 r <= 0
x125 + x225 + x325 + x425 + x525 + x625 + x725 - 30 r <= 0
x126 + x226 + x326 + x426 + x526 + x626 + x726 - 30 r <= 0
x127 + x227 + x327 + x427 + x527 + x627 + x727 - 30 r <= 0
x131 + x231 + x331 + x431 + x531 + x631 + x731 - 30 r <= 0
x132 + x232 + x332 + x432 + x532 + x632 + x732 - 30 r <= 0
x133 + x233 + x333 + x433 + x533 + x633 + x733 - 30 r <= 0
x134 + x234 + x334 + x434 + x534 + x634 + x734 - 30 r <= 0
x135 + x235 + x335 + x435 + x535 + x635 + x735 - 30 r <= 0
x136 + x236 + x336 + x436 + x536 + x636 + x736 - 30 r <= 0
x137 + x237 + x337 + x437 + x537 + x637 + x737 - 30 r <= 0
x141 + x241 + x341 + x441 + x541 + x641 + x741 - 30 r <= 0
x142 + x242 + x342 + x442 + x542 + x642 + x742 - 30 r <= 0
x143 + x243 + x343 + x443 + x543 + x643 + x743 - 30 r <= 0
x144 + x244 + x344 + x444 + x544 + x644 + x744 - 30 r <= 0
x145 + x245 + x345 + x445 + x545 + x645 + x745 - 30 r <= 0
x146 + x246 + x346 + x446 + x546 + x646 + x746 - 30 r <= 0
x147 + x247 + x347 + x447 + x547 + x647 + x747 - 30 r <= 0
x151 + x251 + x351 + x451 + x551 + x651 + x751 - 30 r <= 0
x152 + x252 + x352 + x452 + x552 + x652 + x752 - 30 r <= 0
x153 + x253 + x353 + x453 + x553 + x653 + x753 - 30 r <= 0
x154 + x254 + x354 + x454 + x554 + x654 + x754 - 30 r <= 0
x155 + x255 + x355 + x455 + x555 + x655 + x755 - 30 r <= 0
x156 + x256 + x356 + x456 + x556 + x656 + x756 - 30 r <= 0
x157 + x257 + x357 + x457 + x557 + x657 + x757 - 30 r <= 0
x161 + x261 + x361 + x461 + x561 + x661 + x761 - 30 r <= 0
x162 + x262 + x362 + x462 + x562 + x662 + x762 - 30 r <= 0
x163 + x263 + x363 + x463 + x563 + x663 + x763 - 30 r <= 0
x164 + x264 + x364 + x464 + x564 + x664 + x764 - 30 r <= 0
x165 + x265 + x365 + x465 + x565 + x665 + x765 - 30 r <= 0
x166 + x266 + x366 + x466 + x566 + x666 + x766 - 30 r <= 0
x167 + x267 + x367 + x467 + x567 + x667 + x767 - 30 r <= 0
x171 + x271 + x371 + x471 + x571 + x671 + x771 - 30 r <= 0
x172 + x272 + x372 + x472 + x572 + x672 + x772 - 30 r <= 0
x173 + x273 + x373 + x473 + x573 + x673 + x773 - 30 r <= 0
x174 + x274 + x374 + x474 + x574 + x674 + x774 - 30 r <= 0
x175 + x275 + x375 + x475 + x575 + x675 + x775 - 30 r <= 0
x176 + x276 + x376 + x476 + x576 + x676 + x776 - 30 r <= 0
x177 + x277 + x377 + x477 + x577 + x677 + x777 - 30 r <= 0
x181 + x281 + x381 + x481 + x581 + x681 + x781 - 30 r <= 0
x182 + x282 + x382 + x482 + x582 + x682 + x782 - 30 r <= 0
x183 + x283 + x383 + x483 + x583 + x683 + x783 - 30 r <= 0
x184 + x284 + x384 + x484 + x584 + x684 + x784 - 30 r <= 0
x185 + x285 + x385 + x485 + x585 + x685 + x785 - 30 r <= 0
x186 + x286 + x386 + x486 + x586 + x686 + x786 - 30 r <= 0
x187 + x287 + x387 + x487 + x587 + x687 + x787 - 30 r <= 0
x111 + x112 + x113 + x114 + x115 + x116 + x117 - c11 <= 0
x121 + x122 + x123 + x124 + x125 + x126 + x127 - c12 <= 0
x131 + x132 + x133 + x134 + x135 + x136 + x137 - c13 <= 0
x141 + x142 + x143 + x144 + x145 + x146 + x147 - c14 <= 0
x151 + x152 + x153 + x154 + x155 + x156 + x157 - c15 <= 0
x161 + x162 + x163 + x164 + x165 + x166 + x167 - c16 <= 0
x171 + x172 + x173 + x174 + x175 + x176 + x177 - c17 <= 0
x181 + x182 + x183 + x184 + x185 + x186 + x187 - c18 <= 0
x211 + x212 + x213 + x214 + x215 + x216 + x217 - c21 <= 0
x221 + x222 + x223 + x224 + x225 + x226 + x227 - c22 <= 0
x231 + x232 + x233 + x234 + x235 + x236 + x237 - c23 <= 0
x241 + x242 + x243 + x244 + x245 + x246 + x247 - c24 <= 0
x251 + x252 + x253 + x254 + x255 + x256 + x257 - c25 <= 0
x261 + x262 + x263 + x264 + x265 + x266 + x267 - c26 <= 0
x271 + x272 + x273 + x274 + x275 + x276 + x277 - c27 <= 0
x281 + x282 + x283 + x284 + x285 + x286 + x287 - c28 <= 0
x311 + x312 + x313 + x314 + x315 + x316 + x317 - c31 <= 0
x321 + x322 + x323 + x324 + x325 + x326 + x327 - c32 <= 0
x331 + x332 + x333 + x334 + x335 + x336 + x337 - c33 <= 0
x341 + x342 + x343 + x344 + x345 + x346 + x347 - c34 <= 0
x351 + x352 + x353 + x354 + x355 + x356 + x357 - c35 <= 0
x361 + x362 + x363 + x364 + x365 + x366 + x367 - c36 <= 0
x371 + x372 + x373 + x374 + x375 + x376 + x377 - c37 <= 0
x381 + x382 + x383 + x384 + x385 + x386 + x387 - c38 <= 0
x411 + x412 + x413 + x414 + x415 + x416 + x417 - c41 <= 0
x421 + x422 + x423 + x424 + x425 + x426 + x427 - c42 <= 0
x431 + x432 + x433 + x434 + x435 + x436 + x437 - c43 <= 0
x441 + x442 + x443 + x444 + x445 + x446 + x447 - c44 <= 0
x451 + x452 + x453 + x454 + x455 + x456 + x457 - c45 <= 0
x461 + x462 + x463 + x464 + x465 + x466 + x467 - c46 <= 0
x471 + x472 + x473 + x474 + x475 + x476 + x477 - c47 <= 0
x481 + x482 + x483 + x484 + x485 + x486 + x487 - c48 <= 0
x511 + x512 + x513 + x514 + x515 + x516 + x517 - c51 <= 0
x521 + x522 + x523 + x524 + x525 + x526 + x527 - c52 <= 0
x531 + x532 + x533 + x534 + x535 + x536 + x537 - c53 <= 0
x541 + x542 + x543 + x544 + x545 + x546 + x547 - c54 <= 0
x551 + x552 + x553 + x554 + x555 + x556 + x557 - c55 <= 0
x561 + x562 + x563 + x564 + x565 + x566 + x567 - c56 <= 0
x571 + x572 + x573 + x574 + x575 + x576 + x577 - c57 <= 0
x581 + x582 + x583 + x584 + x585 + x586 + x587 - c58 <= 0
x611 + x612 + x613 + x614 + x615 + x616 + x617 - c61 <= 0
x621 + x622 + x623 + x624 + x625 + x626 + x627 - c62 <= 0
x631 + x632 + x633 + x634 + x635 + x636 + x637 - c63 <= 0
x641 + x642 + x643 + x644 + x645 + x646 + x647 - c64 <= 0
x651 + x652 + x653 + x654 + x655 + x656 + x657 - c65 <= 0
x661 + x662 + x663 + x664 + x665 + x666 + x667 - c66 <= 0
x671 + x672 + x673 + x674 + x675 + x676 + x677 - c67 <= 0
x681 + x682 + x683 + x684 + x685 + x686 + x687 - c68 <= 0
x711 + x712 + x713 + x714 + x715 + x716 + x717 - c71 <= 0
x721 + x722 + x723 + x724 + x725 + x726 + x727 - c72 <= 0
x731 + x732 + x733 + x734 + x735 + x736 + x737 - c73 <= 0
x741 + x742 + x743 + x744 + x745 + x746 + x747 - c74 <= 0
x751 + x752 + x753 + x754 + x755 + x756 + x757 - c75 <= 0
x761 + x762 + x763 + x764 + x765 + x766 + x767 - c76 <= 0
x771 + x772 + x773 + x774 + x775 + x776 + x777 - c77 <= 0
x781 + x782 + x783 + x784 + x785 + x786 + x787 - c78 <= 0
x111 + x211 + x311 + x411 + x511 + x611 + x711 - d11 <= 0
x112 + x212 + x312 + x412 + x512 + x612 + x712 - d12 <= 0
x113 + x213 + x313 + x413 + x513 + x613 + x713 - d13 <= 0
x114 + x214 + x314 + x414 + x514 + x614 + x714 - d14 <= 0
x115 + x215 + x315 + x415 + x515 + x615 + x715 - d15 <= 0
x116 + x216 + x316 + x416 + x516 + x616 + x716 - d16 <= 0
x117 + x217 + x317 + x417 + x517 + x617 + x717 - d17 <= 0
x121 + x221 + x321 + x421 + x521 + x621 + x721 - d21 <= 0
x122 + x222 + x322 + x422 + x522 + x622 + x722 - d22 <= 0
x123 + x223 + x323 + x423 + x523 + x623 + x723 - d23 <= 0
x124 + x224 + x324 + x424 + x524 + x624 + x724 - d24 <= 0
x125 + x225 + x325 + x425 + x525 + x625 + x725 - d25 <= 0
x126 + x226 + x326 + x426 + x526 + x626 + x726 - d26 <= 0
x127 + x227 + x327 + x427 + x527 + x627 + x727 - d27 <= 0
x131 + x231 + x331 + x431 + x531 + x631 + x731 - d31 <= 0
x132 + x232 + x332 + x432 + x532 + x632 + x732 - d32 <= 0
x133 + x233 + x333 + x433 + x533 + x633 + x733 - d33 <= 0
x134 + x234 + x334 + x434 + x534 + x634 + x734 - d34 <= 0
x135 + x235 + x335 + x435 + x535 + x635 + x735 - d35 <= 0
x136 + x236 + x336 + x436 + x536 + x636 + x736 - d36 <= 0
x137 + x237 + x337 + x437 + x537 + x637 + x737 - d37 <= 0
x141 + x241 + x341 + x441 + x541 + x641 + x741 - d41 <= 0
x142 + x242 + x342 + x442 + x542 + x642 + x742 - d42 <= 0
x143 + x243 + x343 + x443 + x543 + x643 + x743 - d43 <= 0
x144 + x244 + x344 + x444 + x544 + x644 + x744 - d44 <= 0
x145 + x245 + x345 + x445 + x545 + x645 + x745 - d45 <= 0
x146 + x246 + x346 + x446 + x546 + x646 + x746 - d46 <= 0
x147 + x247 + x347 + x447 + x547 + x647 + x747 - d47 <= 0
x151 + x251 + x351 + x451 + x551 + x651 + x751 - d51 <= 0
x152 + x252 + x352 + x452 + x552 + x652 + x752 - d52 <= 0
x153 + x253 + x353 + x453 + x553 + x653 + x753 - d53 <= 0
x154 + x254 + x354 + x454 + x554 + x654 + x754 - d54 <= 0
x155 + x255 + x355 + x455 + x555 + x655 + x755 - d55 <= 0
x156 + x256 + x356 + x456 + x556 + x656 + x756 - d56 <= 0
x157 + x257 + x357 + x457 + x557 + x657 + x757 - d57 <= 0
x161 + x261 + x361 + x461 + x561 + x661 + x761 - d61 <= 0
x162 + x262 + x362 + x462 + x562 + x662 + x762 - d62 <= 0
x163 + x263 + x363 + x463 + x563 + x663 + x763 - d63 <= 0
x164 + x264 + x364 + x464 + x564 + x664 + x764 - d64 <= 0
x165 + x265 + x365 + x465 + x565 + x665 + x765 - d65 <= 0
x166 + x266 + x366 + x466 + x566 + x666 + x766 - d66 <= 0
x167 + x267 + x367 + x467 + x567 + x667 + x767 - d67 <= 0
x171 + x271 + x371 + x471 + x571 + x671 + x771 - d71 <= 0
x172 + x272 + x372 + x472 + x572 + x672 + x772 - d72 <= 0
x173 + x273 + x373 + x473 + x573 + x673 + x773 - d73 <= 0
x174 + x274 + x374 + x474 + x574 + x674 + x774 - d74 <= 0
x175 + x275 + x375 + x475 + x575 + x675 + x775 - d75 <= 0
x176 + x276 + x376 + x476 + x576 + x676 + x776 - d76 <= 0
x177 + x277 + x377 + x477 + x577 + x677 + x777 - d77 <= 0
x181 + x281 + x381 + x481 + x581 + x681 + x781 - d81 <= 0
x182 + x282 + x382 + x482 + x582 + x682 + x782 - d82 <= 0
x183 + x283 + x383 + x483 + x583 + x683 + x783 - d83 <= 0
x184 + x284 + x384 + x484 + x584 + x684 + x784 - d84 <= 0
x185 + x285 + x385 + x485 + x585 + x685 + x785 - d85 <= 0
x186 + x286 + x386 + x486 + x586 + x686 + x786 - d86 <= 0
x187 + x287 + x387 + x487 + x587 + x687 + x787 - d87 <= 0
Bounds
0 <= x111
0 <= x112
0 <= x113
0 <= x114
0 <= x115
0 <= x116
0 <= x117
0 <= x121
0 <= x122
0 <= x123
0 <= x124
0 <= x125
0 <= x126
0 <= x127
0 <= x131
0 <= x132
0 <= x133
0 <= x134
0 <= x135
0 <= x136
0 <= x137
0 <= x141
0 <= x142
0 <= x143
0 <= x144
0 <= x145
0 <= x146
0 <= x147
0 <= x151
0 <= x152
0 <= x153
0 <= x154
0 <= x155
0 <= x156
0 <= x157
0 <= x161
0 <= x162
0 <= x163
0 <= x164
0 <= x165
0 <= x166
0 <= x167
0 <= x171
0 <= x172
0 <= x173
0 <= x174
0 <= x175
0 <= x176
0 <= x177
0 <= x181
0 <= x182
0 <= x183
0 <= x184
0 <= x185
0 <= x186
0 <= x187
0 <= x211
0 <= x212
0 <= x213
0 <= x214
0 <= x215
0 <= x216
0 <= x217
0 <= x221
0 <= x222
0 <= x223
0 <= x224
0 <= x225
0 <= x226
0 <= x227
0 <= x231
0 <= x232
0 <= x233
0 <= x234
0 <= x235
0 <= x236
0 <= x237
0 <= x241
0 <= x242
0 <= x243
0 <= x244
0 <= x245
0 <= x246
0 <= x247
0 <= x251
0 <= x252
0 <= x253
0 <= x254
0 <= x255
0 <= x256
0 <= x257
0 <= x261
0 <= x262
0 <= x263
0 <= x264
0 <= x265
0 <= x266
0 <= x267
0 <= x271
0 <= x272
0 <= x273
0 <= x274
0 <= x275
0 <= x276
0 <= x277
0 <= x281
0 <= x282
0 <= x283
0 <= x284
0 <= x285
0 <= x286
0 <= x287
0 <= x311
0 <= x312
0 <= x313
0 <= x314
0 <= x315
0 <= x316
0 <= x317
0 <= x321
0 <= x322
0 <= x323
0 <= x324
0 <= x325
0 <= x326
0 <= x327
0 <= x331
0 <= x332
0 <= x333
0 <= x334
0 <= x335
0 <= x336
0 <= x337
0 <= x341
0 <= x342
0 <= x343
0 <= x344
0 <= x345
0 <= x346
0 <= x347
0 <= x351
0 <= x352
0 <= x353
0 <= x354
0 <= x355
0 <= x356
0 <= x357
0 <= x361
0 <= x362
0 <= x363
0 <= x364
0 <= x365
0 <= x366
0 <= x367
0 <= x371
0 <= x372
0 <= x373
0 <= x374
0 <= x375
0 <= x376
0 <= x377
0 <= x381
0 <= x382
0 <= x383
0 <= x384
0 <= x385
0 <= x386
0 <= x387
0 <= x411
0 <= x412
0 <= x413
0 <= x414
0 <= x415
0 <= x416
0 <= x417
0 <= x421
0 <= x422
0 <= x423
0 <= x424
0 <= x425
0 <= x426
0 <= x427
0 <= x431
0 <= x432
0 <= x433
0 <= x434
0 <= x435
0 <= x436
0 <= x437
0 <= x441
0 <= x442
0 <= x443
0 <= x444
0 <= x445
0 <= x446
0 <= x447
0 <= x451
0 <= x452
0 <= x453
0 <= x454
0 <= x455
0 <= x456
0 <= x457
0 <= x461
0 <= x462
0 <= x463
0 <= x464
0 <= x465
0 <= x466
0 <= x467
0 <= x471
0 <= x472
0 <= x473
0 <= x474
0 <= x475
0 <= x476
0 <= x477
0 <= x481
0 <= x482
0 <= x483
0 <= x484
0 <= x485
0 <= x486
0 <= x487
0 <= x511
0 <= x512
0 <= x513
0 <= x514
0 <= x515
0 <= x516
0 <= x517
0 <= x521
0 <= x522
0 <= x523
0 <= x524
0 <= x525
0 <= x526
0 <= x527
0 <= x531
0 <= x532
0 <= x533
0 <= x534
0 <= x535
0 <= x536
0 <= x537
0 <= x541
0 <= x542
0 <= x543
0 <= x544
0 <= x545
0 <= x546
0 <= x547
0 <= x551
0 <= x552
0 <= x553
0 <= x554
0 <= x555
0 <= x556
0 <= x557
0 <= x561
0 <= x562
0 <= x563
0 <= x564
0 <= x565
0 <= x566
0 <= x567
0 <= x571
0 <= x572
0 <= x573
0 <= x574
0 <= x575
0 <= x576
0 <= x577
0 <= x581
0 <= x582
0 <= x583
0 <= x584
0 <= x585
0 <= x586
0 <= x587
0 <= x611
0 <= x612
0 <= x613
0 <= x614
0 <= x615
0 <= x616
0 <= x617
0 <= x621
0 <= x622
0 <= x623
0 <= x624
0 <= x625
0 <= x626
0 <= x627
0 <= x631
0 <= x632
0 <= x633
0 <= x634
0 <= x635
0 <= x636
0 <= x637
0 <= x641
0 <= x642
0 <= x643
0 <= x644
0 <= x645
0 <= x646
0 <= x647
0 <= x651
0 <= x652
0 <= x653
0 <= x654
0 <= x655
0 <= x656
0 <= x657
0 <= x661
0 <= x662
0 <= x663
0 <= x664
0 <= x665
0 <= x666
0 <= x667
0 <= x671
0 <= x672
0 <= x673
0 <= x674
0 <= x675
0 <= x676
0 <= x677
0 <= x681
0 <= x682
0 <= x683
0 <= x684
0 <= x685
0 <= x686
0 <= x687
0 <= x711
0 <= x712
0 <= x713
0 <= x714
0 <= x715
0 <= x716
0 <= x717
0 <= x721
0 <= x722
0 <= x723
0 <= x724
0 <= x725
0 <= x726
0 <= x727
0 <= x731
0 <= x732
0 <= x733
0 <= x734
0 <= x735
0 <= x736
0 <= x737
0 <= x741
0 <= x742
0 <= x743
0 <= x744
0 <= x745
0 <= x746
0 <= x747
0 <= x751
0 <= x752
0 <= x753
0 <= x754
0 <= x755
0 <= x756
0 <= x757
0 <= x761
0 <= x762
0 <= x763
0 <= x764
0 <= x765
0 <= x766
0 <= x767
0 <= x771
0 <= x772
0 <= x773
0 <= x774
0 <= x775
0 <= x776
0 <= x777
0 <= x781
0 <= x782
0 <= x783
0 <= x784
0 <= x785
0 <= x786
0 <= x787
0 <= c11
0 <= c12
0 <= c13
0 <= c14
0 <= c15
0 <= c16
0 <= c17
0 <= c18
0 <= c21
0 <= c22
0 <= c23
0 <= c24
0 <= c25
0 <= c26
0 <= c27
0 <= c28
0 <= c31
0 <= c32
0 <= c33
0 <= c34
0 <= c35
0 <= c36
0 <= c37
0 <= c38
0 <= c41
0 <= c42
0 <= c43
0 <= c44
0 <= c45
0 <= c46
0 <= c47
0 <= c48
0 <= c51
0 <= c52
0 <= c53
0 <= c54
0 <= c55
0 <= c56
0 <= c57
0 <= c58
0 <= c61
0 <= c62
0 <= c63
0 <= c64
0 <= c65
0 <= c66
0 <= c67
0 <= c68
0 <= c71
0 <= c72
0 <= c73
0 <= c74
0 <= c75
0 <= c76
0 <= c77
0 <= c78
0 <= d11
0 <= d12
0 <= d13
0 <= d14
0 <= d15
0 <= d16
0 <= d17
0 <= d21
0 <= d22
0 <= d23
0 <= d24
0 <= d25
0 <= d26
0 <= d27
0 <= d31
0 <= d32
0 <= d33
0 <= d34
0 <= d35
0 <= d36
0 <= d37
0 <= d41
0 <= d42
0 <= d43
0 <= d44
0 <= d45
0 <= d46
0 <= d47
0 <= d51
0 <= d52
0 <= d53
0 <= d54
0 <= d55
0 <= d56
0 <= d57
0 <= d61
0 <= d62
0 <= d63
0 <= d64
0 <= d65
0 <= d66
0 <= d67
0 <= d71
0 <= d72
0 <= d73
0 <= d74
0 <= d75
0 <= d76
0 <= d77
0 <= d81
0 <= d82
0 <= d83
0 <= d84
0 <= d85
0 <= d86
0 <= d87
0 <= r
Binaries
p111
p112
p113
p114
p115
p116
p117
p121
p122
p123
p124
p125
p126
p127
p131
p132
p133
p134
p135
p136
p137
p141
p142
p143
p144
p145
p146
p147
p151
p152
p153
p154
p155
p156
p157
p161
p162
p163
p164
p165
p166
p167
p171
p172
p173
p174
p175
p176
p177
p181
p182
p183
p184
p185
p186
p187
p211
p212
p213
p214
p215
p216
p217
p221
p222
p223
p224
p225
p226
p227
p231
p232
p233
p234
p235
p236
p237
p241
p242
p243
p244
p245
p246
p247
p251
p252
p253
p254
p255
p256
p257
p261
p262
p263
p264
p265
p266
p267
p271
p272
p273
p274
p275
p276
p277
p281
p282
p283
p284
p285
p286
p287
p311
p312
p313
p314
p315
p316
p317
p321
p322
p323
p324
p325
p326
p327
p331
p332
p333
p334
p335
p336
p337
p341
p342
p343
p344
p345
p346
p347
p351
p352
p353
p354
p355
p356
p357
p361
p362
p363
p364
p365
p366
p367
p371
p372
p373
p374
p375
p376
p377
p381
p382
p383
p384
p385
p386
p387
p411
p412
p413
p414
p415
p416
p417
p421
p422
p423
p424
p425
p426
p427
p431
p432
p433
p434
p435
p436
p437
p441
p442
p443
p444
p445
p446
p447
p451
p452
p453
p454
p455
p456
p457
p461
p462
p463
p464
p465
p466
p467
p471
p472
p473
p474
p475
p476
p477
p481
p482
p483
p484
p485
p486
p487
p511
p512
p513
p514
p515
p516
p517
p521
p522
p523
p524
p525
p526
p527
p531
p532
p533
p534
p535
p536
p537
p541
p542
p543
p544
p545
p546
p547
p551
p552
p553
p554
p555
p556
p557
p561
p562
p563
p564
p565
p566
p567
p571
p572
p573
p574
p575
p576
p577
p581
p582
p583
p584
p585
p586
p587
p611
p612
p613
p614
p615
p616
p617
p621
p622
p623
p624
p625
p626
p627
p631
p632
p633
p634
p635
p636
p637
p641
p642
p643
p644
p645
p646
p647
p651
p652
p653
p654
p655
p656
p657
p661
p662
p663
p664
p665
p666
p667
p671
p672
p673
p674
p675
p676
p677
p681
p682
p683
p684
p685
p686
p687
p711
p712
p713
p714
p715
p716
p717
p721
p722
p723
p724
p725
p726
p727
p731
p732
p733
p734
p735
p736
p737
p741
p742
p743
p744
p745
p746
p747
p751
p752
p753
p754
p755
p756
p757
p761
p762
p763
p764
p765
p766
p767
p771
p772
p773
p774
p775
p776
p777
p781
p782
p783
p784
p785
p786
p787
End
